N: 1000
R: 1000
Capacities: 246057
------
Total value: 246057
Total weight: 246057
Packed Items: [0, 1, 2, 3, 4, 5, 6, 7, 8, 9, 10, 11, 12, 13, 14, 15, 16, 17, 18, 19, 20, 21, 22, 23, 24, 25, 26, 27, 28, 29, 30, 31, 32, 33, 34, 35, 36, 37, 38, 39, 40, 41, 42, 43, 44, 45, 46, 47, 48, 49, 50, 51, 52, 53, 54, 55, 56, 57, 58, 59, 60, 61, 62, 63, 64, 65, 66, 67, 68, 69, 70, 71, 72, 73, 74, 75, 76, 77, 78, 79, 80, 81, 82, 83, 84, 85, 86, 87, 88, 89, 90, 91, 92, 93, 94, 95, 96, 97, 98, 99, 100, 101, 102, 103, 104, 105, 106, 107, 108, 109, 110, 111, 112, 113, 114, 115, 116, 117, 118, 119, 120, 121, 122, 123, 124, 125, 126, 127, 128, 129, 130, 131, 132, 133, 134, 135, 136, 137, 138, 139, 140, 141, 142, 143, 144, 145, 146, 147, 148, 149, 150, 151, 152, 153, 154, 155, 156, 157, 158, 159, 160, 161, 162, 163, 164, 165, 166, 167, 168, 169, 170, 171, 172, 173, 174, 175, 176, 177, 178, 179, 180, 181, 182, 183, 184, 185, 186, 187, 188, 189, 190, 191, 192, 193, 194, 195, 196, 197, 198, 199, 200, 201, 202, 203, 204, 205, 206, 207, 208, 209, 210, 211, 212, 213, 214, 215, 216, 217, 218, 219, 220, 221, 222, 223, 224, 225, 226, 227, 228, 229, 230, 231, 232, 233, 234, 235, 236, 237, 238, 239, 240, 241, 242, 243, 244, 245, 246, 247, 248, 249, 250, 251, 252, 253, 254, 255, 256, 257, 258, 259, 260, 261, 262, 263, 264, 265, 266, 267, 268, 269, 270, 271, 272, 273, 274, 275, 276, 277, 278, 279, 280, 281, 282, 283, 284, 285, 286, 287, 288, 289, 290, 291, 292, 293, 294, 295, 296, 297, 298, 299, 300, 301, 302, 303, 304, 305, 306, 307, 308, 309, 310, 311, 312, 313, 314, 315, 316, 317, 318, 319, 320, 321, 322, 323, 324, 325, 326, 327, 328, 329, 330, 331, 332, 333, 334, 335, 336, 337, 338, 339, 340, 341, 342, 343, 344, 345, 346, 347, 348, 349, 350, 351, 352, 353, 354, 355, 356, 357, 358, 359, 360, 361, 362, 363, 364, 365, 366, 367, 368, 369, 370, 371, 372, 373, 375, 376, 377, 378, 379, 380, 381, 382, 383, 384, 385, 386, 387, 388, 389, 390, 391, 392, 393, 394, 395, 396, 397, 398, 399, 400, 401, 402, 403, 404, 405, 406, 407, 408, 409, 410, 411, 412, 413, 414, 415, 416, 417, 418, 419, 420, 421, 422, 423, 424, 425, 426, 427, 428, 429, 430, 431, 432, 433, 434, 435, 436, 437, 438, 439, 440, 441, 442, 443, 444, 445, 446, 447, 448, 449, 450, 451, 452, 453, 454, 455, 456, 457, 458, 459, 460, 461, 462, 463, 464, 465, 466, 467, 468, 469, 470, 471, 472, 473, 474, 475, 476, 477, 478, 479, 480, 481, 482, 483, 484, 485, ]
Packed Weights: [238, 545, 370, 604, 626, 66, 14, 838, 260, 235, 996, 471, 837, 477, 640, 151, 635, 869, 524, 742, 672, 65, 759, 592, 302, 32, 866, 473, 719, 879, 715, 922, 395, 801, 445, 936, 879, 98, 136, 217, 966, 437, 627, 302, 508, 386, 351, 586, 585, 905, 682, 929, 857, 991, 672, 164, 861, 965, 905, 570, 714, 212, 832, 574, 285, 64, 854, 990, 89, 801, 411, 151, 294, 769, 873, 45, 615, 45, 719, 331, 881, 981, 506, 999, 310, 77, 600, 32, 198, 408, 611, 157, 43, 868, 314, 959, 897, 378, 461, 521, 644, 596, 560, 621, 941, 508, 432, 721, 238, 302, 978, 522, 549, 12, 416, 580, 21, 616, 633, 61, 628, 467, 680, 353, 707, 739, 23, 61, 677, 964, 252, 457, 593, 321, 364, 313, 370, 596, 301, 378, 773, 27, 570, 736, 311, 223, 804, 239, 188, 436, 699, 102, 322, 334, 834, 439, 856, 170, 337, 651, 885, 452, 226, 121, 530, 191, 807, 839, 184, 279, 808, 642, 807, 346, 130, 292, 794, 272, 347, 417, 420, 410, 921, 156, 5, 944, 880, 987, 435, 951, 928, 223, 746, 837, 663, 520, 290, 342, 228, 69, 589, 288, 811, 46, 904, 694, 924, 897, 900, 577, 14, 746, 172, 300, 663, 525, 414, 940, 613, 342, 253, 862, 478, 783, 352, 198, 535, 817, 172, 792, 922, 807, 824, 8, 629, 863, 50, 272, 269, 528, 423, 473, 777, 2, 55, 127, 125, 69, 975, 855, 87, 503, 316, 315, 352, 647, 587, 361, 192, 329, 124, 556, 717, 381, 80, 179, 374, 605, 783, 381, 802, 623, 432, 373, 497, 703, 421, 695, 461, 246, 536, 696, 72, 425, 426, 880, 937, 375, 898, 791, 263, 465, 124, 814, 663, 888, 793, 668, 734, 564, 104, 588, 5, 144, 775, 45, 92, 100, 881, 180, 24, 842, 122, 844, 674, 837, 953, 580, 799, 37, 768, 512, 716, 107, 749, 935, 62, 325, 564, 829, 243, 180, 250, 616, 754, 394, 368, 397, 351, 419, 84, 501, 974, 413, 748, 161, 691, 757, 674, 518, 484, 643, 898, 150, 96, 749, 917, 518, 444, 719, 187, 268, 200, 586, 315, 233, 692, 954, 296, 706, 414, 854, 585, 268, 24, 480, 383, 173, 361, 323, 775, 144, 992, 480, 600, 469, 835, 822, 558, 482, 721, 857, 401, 734, 961, 468, 230, 235, 718, 676, 959, 854, 243, 190, 259, 188, 705, 859, 900, 256, 866, 314, 424, 729, 86, 93, 834, 292, 357, 581, 676, 7, 335, 437, 486, 211, 586, 956, 391, 545, 120, 275, 666, 113, 888, 909, 97, 942, 375, 773, 758, 296, 676, 655, 807, 266, 755, 962, 673, 537, 114, 494, 353, 719, 679, 567, 182, 646, 631, 180, 890, 656, 124, 932, 142, 332, 721, 598, 555, 648, 458, 313, 177, 69, 716, 755, 544, 740, 360, 266, 384, 873, 43, 505, 248, ]
Time Consuming: 0.005001544952392578